GLPSOL--GLPK LP/MIP Solver 5.0
Parameter(s) specified in the command line:
 --lp ../modeles/5_479.lp --log 5_479.log
Reading problem data from '../modeles/5_479.lp'...
2416 rows, 4800 columns, 16790 non-zeros
2395 integer variables, all of which are binary
7227 lines were read
GLPK Integer Optimizer 5.0
2416 rows, 4800 columns, 16790 non-zeros
2395 integer variables, all of which are binary
Preprocessing...
2370 constraint coefficient(s) were reduced
2416 rows, 4795 columns, 16785 non-zeros
2395 integer variables, all of which are binary
Scaling...
 A: min|aij| =  1.743e-05  max|aij| =  4.000e+00  ratio =  2.294e+05
GM: min|aij| =  4.569e-02  max|aij| =  2.189e+01  ratio =  4.790e+02
EQ: min|aij| =  2.088e-03  max|aij| =  1.000e+00  ratio =  4.790e+02
2N: min|aij| =  1.953e-03  max|aij| =  1.761e+00  ratio =  9.014e+02
Constructing initial basis...
Size of triangular part is 2416
Solving LP relaxation...
GLPK Simplex Optimizer 5.0
2416 rows, 4795 columns, 16785 non-zeros
      0: obj =   1.000000000e+01 inf =   2.450e+01 (11)
    124: obj =   4.999585948e-01 inf =   0.000e+00 (0)
*   410: obj =  -2.236048287e+00 inf =   8.710e-16 (0)
OPTIMAL LP SOLUTION FOUND
Integer optimization begins...
Long-step dual simplex will be used
+   410: mip =     not found yet >=              -inf        (1; 0)
+   498: >>>>>  -2.236048287e+00 >=  -2.236048287e+00 < 0.1% (86; 0)
+   498: mip =  -2.236048287e+00 >=     tree is empty   0.0% (0; 171)
INTEGER OPTIMAL SOLUTION FOUND
Time used:   0.3 secs
Memory used: 7.0 Mb (7305195 bytes)
